p edge 110 247
e 1 2
e 1 3
e 1 4
e 1 11
e 1 14
e 1 75
e 1 89
e 1 94
e 1 109
e 2 6
e 2 11
e 2 40
e 2 46
e 2 47
e 2 88
e 3 4
e 3 11
e 3 15
e 3 19
e 3 20
e 3 32
e 3 52
e 3 53
e 3 96
e 4 6
e 4 11
e 4 12
e 4 14
e 4 17
e 4 20
e 4 39
e 4 43
e 4 75
e 5 10
e 5 30
e 5 31
e 5 35
e 5 42
e 5 54
e 5 62
e 5 101
e 5 103
e 6 7
e 6 14
e 6 18
e 6 20
e 6 40
e 7 24
e 7 31
e 7 46
e 7 48
e 7 63
e 7 93
e 8 15
e 8 18
e 8 19
e 8 27
e 8 28
e 8 29
e 8 36
e 8 39
e 9 21
e 9 22
e 9 37
e 9 41
e 9 50
e 9 52
e 9 53
e 9 71
e 9 95
e 10 13
e 10 25
e 10 30
e 10 35
e 10 62
e 10 101
e 10 103
e 11 17
e 11 33
e 12 17
e 12 33
e 12 34
e 12 45
e 12 62
e 12 70
e 12 75
e 13 83
e 13 110
e 14 17
e 14 18
e 14 20
e 14 39
e 14 75
e 14 94
e 14 109
e 15 19
e 15 28
e 15 29
e 15 96
e 16 22
e 16 32
e 16 35
e 16 50
e 16 51
e 16 54
e 16 59
e 16 105
e 17 20
e 17 33
e 17 37
e 17 39
e 17 68
e 18 39
e 18 47
e 19 27
e 19 28
e 19 29
e 19 96
e 20 39
e 21 30
e 21 40
e 21 41
e 21 42
e 21 49
e 21 51
e 21 52
e 21 53
e 21 57
e 21 95
e 22 50
e 22 59
e 23 25
e 23 81
e 23 85
e 24 44
e 24 72
e 24 73
e 24 74
e 24 77
e 25 26
e 25 38
e 25 81
e 25 91
e 26 38
e 26 55
e 26 56
e 26 81
e 26 91
e 27 28
e 27 29
e 27 43
e 28 29
e 30 35
e 30 42
e 30 62
e 31 42
e 31 46
e 31 54
e 31 59
e 31 60
e 31 93
e 32 41
e 32 49
e 32 51
e 32 52
e 32 53
e 32 92
e 33 108
e 34 45
e 34 62
e 34 76
e 35 54
e 35 62
e 35 97
e 36 57
e 36 90
e 37 41
e 37 42
e 37 52
e 37 53
e 37 68
e 38 55
e 38 56
e 38 106
e 38 107
e 39 40
e 40 41
e 40 51
e 41 51
e 41 52
e 41 53
e 41 95
e 42 54
e 42 59
e 42 60
e 43 104
e 44 58
e 44 61
e 44 67
e 44 80
e 45 62
e 45 76
e 46 47
e 46 93
e 49 57
e 49 92
e 49 98
e 50 71
e 50 105
e 52 53
e 52 95
e 53 95
e 54 59
e 54 60
e 55 56
e 55 58
e 55 61
e 56 58
e 56 61
e 57 90
e 57 98
e 58 61
e 59 60
e 60 64
e 65 99
e 66 72
e 66 73
e 66 74
e 66 77
e 67 80
e 67 82
e 67 84
e 67 87
e 69 78
e 72 73
e 72 74
e 73 74
e 75 94
e 76 86
e 78 79
e 81 91
e 82 84
e 82 87
e 84 87
e 100 102
e 101 103
e 106 107
